25
    1     6     6
    2     3     3
    3     7     7
    4    19    19
    5    13    13
    6     5     5
    7     6     6
    8     1     1
    9    15    15
   10     6     6
   11     8     8
   12     6     6
   13    16    16
   14    18    18
   15     2     2
   16    16    16
   17     4     4
   18     3     3
   19     9     9
   20     7     7
   21    18    18
   22     8     8
   23    14    14
   24     8     8
   25    15    15
50
